networks/zoo_100_2450/zoo_100_2450-lower.txt
Number of groups: 57
Flow 1: {1 2 0} {2 52 1} 
Flow 21: {27 21 0} {21 22 1} {22 72 2} 
Flow 28: {26 28 0} {28 27 1} {27 30 2} {30 29 3} {29 79 4} 
Flow 38: {2 9 0} {9 39 1} {39 89 2} 
Flow 42: {47 43 0} {43 93 1} 
Flow 47: {48 98 0} 
Flow 99: {3 4 0} {4 2 1} {2 1 2} {1 51 3} 
Flow 236: {4 50 0} {50 41 1} {41 91 2} 
Flow 276: {6 9 0} {9 32 1} {32 82 2} 
Flow 294: {6 48 0} {48 49 1} {49 50 2} {50 100 3} 
Flow 346: {7 3 0} {3 53 1} 
Flow 352: {8 5 0} {5 10 1} 
Flow 453: {10 5 0} {5 9 1} {9 31 2} {31 13 3} {13 63 4} 
Flow 474: {10 33 0} {33 34 1} {34 84 2} 
Flow 517: {11 12 0} {12 20 1} {20 25 2} {25 28 3} {28 78 4} 
Flow 554: {18 17 0} {17 16 1} {16 66 2} 
Flow 619: {13 31 0} {31 32 1} 
Flow 644: {5 8 0} {8 7 1} {7 57 2} 
Flow 722: {15 14 0} {14 31 1} {31 37 2} {37 87 3} 
Flow 781: {43 47 0} {47 97 1} 
Flow 790: {16 15 0} {15 46 1} {46 48 2} {48 6 3} 
Flow 803: {17 18 0} {18 19 1} {19 20 2} {20 70 3} 
Flow 921: {20 31 0} {31 39 1} {39 40 2} 
Flow 990: {38 39 0} {39 33 1} {33 10 2} {10 60 3} 
Flow 999: {25 20 0} {20 19 1} {19 69 2} 
Flow 1051: {28 26 0} {26 38 1} {38 23 2} {23 73 3} 
Flow 1052: {12 24 0} {24 74 1} 
Flow 1053: {21 27 0} {27 28 1} {28 25 2} {25 75 3} 
Flow 1058: {22 29 0} {29 30 1} {30 80 2} 
Flow 1119: {9 2 0} {2 4 1} {4 3 2} {3 42 3} {42 92 4} 
Flow 1132: {24 31 0} {31 9 1} {9 5 2} {5 55 3} 
Flow 1138: {24 12 0} {12 11 1} {11 61 2} 
Flow 1318: {14 15 0} {15 43 1} {43 45 2} {45 95 3} 
Flow 1393: {29 22 0} {22 21 1} {21 71 2} 
Flow 1399: {30 27 0} {27 77 1} 
Flow 1525: {32 9 0} {9 6 1} {6 56 2} 
Flow 1550: {32 31 0} {31 81 1} 
Flow 1643: {33 39 0} {39 38 1} {38 26 2} {26 76 3} 
Flow 1652: {34 35 2} {35 36 3} {36 86 4} 
Flow 1683: {46 15 0} {15 16 1} {16 17 2} {17 67 3} 
Flow 1699: {35 34 0} {34 33 1} {33 83 2} 
Flow 1754: {36 9 0} {9 33 1} {33 40 2} {40 90 3} 
Flow 1778: {37 31 0} {31 14 1} {14 64 2} 
Flow 1807: {37 9 0} {9 48 1} {48 47 2} {47 44 3} {44 94 4} 
Flow 1837: {23 31 0} {31 24 1} 
Flow 1848: {39 9 0} {9 36 1} {36 35 2} {35 85 3} 
Flow 1920: {40 33 0} {33 9 1} {9 59 2} 
Flow 1923: {40 39 0} {39 31 1} {31 20 2} {20 12 3} {12 62 4} 
Flow 1964: {50 4 0} {4 54 1} 
Flow 1968: {41 42 0} {42 3 1} {3 7 2} {7 8 3} {8 58 4} 
Flow 2057: {42 41 0} {41 50 1} {50 49 2} {49 99 3} 
Flow 2122: {44 45 0} {45 43 1} {43 15 2} {15 65 3} 
Flow 2152: {44 47 0} {47 48 1} {48 46 2} {46 96 3} 
Flow 2194: {31 23 0} {23 38 1} {38 88 2} 
Flow 2200: {45 44 0} 
Flow 2389: {49 48 0} {48 9 1} {9 37 2} 
Flow 2419: {19 18 0} {18 68 1} 
Time taken running everything: 10 seconds
