networks/zoo_100_2450/zoo_100_2450-lower.sol
<?xml version = "1.0" encoding="UTF-8" standalone="yes"?>
<CPLEXSolution version="1.2">
 <header
   problemName="networks/zoo_100_2450/zoo_100_2450-lower.lp"
   solutionName="incumbent"
   solutionIndex="-1"
   objectiveValue="50"
   solutionTypeValue="3"
   solutionTypeString="primal"
   solutionStatusValue="101"
   solutionStatusString="integer optimal solution"
   solutionMethodString="mip"
   primalFeasible="1"
   dualFeasible="1"
   MIPNodes="0"
   MIPIterations="0"
   writeLevel="3"/>
 <quality
   epInt="1.0000000000000001e-05"
   epRHS="9.9999999999999995e-07"
   maxIntInfeas="0"
   maxPrimalInfeas="0"
   maxX="1"
   maxSlack="1"/>
 <variables>
  <variable name="Y(1,2)" index="1" value="1"/>
  <variable name="Y(2,3)" index="102" value="1"/>
  <variable name="Y(3,4)" index="203" value="1"/>
  <variable name="Y(4,5)" index="304" value="1"/>
  <variable name="Y(5,6)" index="405" value="1"/>
  <variable name="Y(6,7)" index="506" value="1"/>
  <variable name="Y(7,8)" index="607" value="1"/>
  <variable name="Y(8,9)" index="708" value="1"/>
  <variable name="Y(9,10)" index="809" value="1"/>
  <variable name="Y(10,11)" index="910" value="1"/>
  <variable name="Y(11,12)" index="1011" value="1"/>
  <variable name="Y(12,13)" index="1112" value="1"/>
  <variable name="Y(13,14)" index="1213" value="1"/>
  <variable name="Y(14,15)" index="1314" value="1"/>
  <variable name="Y(15,16)" index="1415" value="1"/>
  <variable name="Y(16,17)" index="1516" value="1"/>
  <variable name="Y(17,18)" index="1617" value="1"/>
  <variable name="Y(18,19)" index="1718" value="1"/>
  <variable name="Y(19,20)" index="1819" value="1"/>
  <variable name="Y(20,21)" index="1920" value="1"/>
  <variable name="Y(21,22)" index="2021" value="1"/>
  <variable name="Y(22,23)" index="2122" value="1"/>
  <variable name="Y(23,24)" index="2223" value="1"/>
  <variable name="Y(24,25)" index="2324" value="1"/>
  <variable name="Y(25,26)" index="2425" value="1"/>
  <variable name="Y(26,27)" index="2526" value="1"/>
  <variable name="Y(27,28)" index="2627" value="1"/>
  <variable name="Y(28,29)" index="2728" value="1"/>
  <variable name="Y(29,30)" index="2829" value="1"/>
  <variable name="Y(30,31)" index="2930" value="1"/>
  <variable name="Y(31,32)" index="3031" value="1"/>
  <variable name="Y(32,33)" index="3132" value="1"/>
  <variable name="Y(33,34)" index="3233" value="1"/>
  <variable name="Y(34,35)" index="3334" value="1"/>
  <variable name="Y(35,36)" index="3435" value="1"/>
  <variable name="Y(36,37)" index="3536" value="1"/>
  <variable name="Y(37,38)" index="3637" value="1"/>
  <variable name="Y(38,39)" index="3738" value="1"/>
  <variable name="Y(39,40)" index="3839" value="1"/>
  <variable name="Y(40,41)" index="3940" value="1"/>
  <variable name="Y(41,42)" index="4041" value="1"/>
  <variable name="Y(42,43)" index="4142" value="1"/>
  <variable name="Y(43,44)" index="4243" value="1"/>
  <variable name="Y(44,45)" index="4344" value="1"/>
  <variable name="Y(45,46)" index="4445" value="1"/>
  <variable name="Y(46,47)" index="4546" value="1"/>
  <variable name="Y(47,48)" index="4647" value="1"/>
  <variable name="Y(48,49)" index="4748" value="1"/>
  <variable name="Y(49,50)" index="4849" value="1"/>
  <variable name="Y(50,1)" index="4900" value="1"/>
  <variable name="X(1,2,1)" index="245000" value="1"/>
  <variable name="X(1,51,50)" index="247499" value="1"/>
  <variable name="X(2,1,50)" index="249949" value="1"/>
  <variable name="X(2,4,2)" index="252351" value="1"/>
  <variable name="X(2,9,4)" index="254803" value="1"/>
  <variable name="X(2,52,1)" index="257250" value="1"/>
  <variable name="X(3,4,99)" index="259798" value="1"/>
  <variable name="X(3,7,6)" index="262155" value="1"/>
  <variable name="X(3,42,41)" index="264640" value="1"/>
  <variable name="X(3,53,2)" index="267051" value="1"/>
  <variable name="X(4,2,99)" index="269598" value="1"/>
  <variable name="X(4,3,2)" index="271951" value="1"/>
  <variable name="X(4,50,40)" index="274439" value="1"/>
  <variable name="X(4,54,3)" index="276852" value="1"/>
  <variable name="X(5,8,7)" index="279306" value="1"/>
  <variable name="X(5,9,197)" index="281946" value="1"/>
  <variable name="X(5,10,9)" index="284208" value="1"/>
  <variable name="X(5,55,4)" index="286653" value="1"/>
  <variable name="X(6,9,246)" index="289345" value="1"/>
  <variable name="X(6,48,259)" index="291808" value="1"/>
  <variable name="X(6,56,5)" index="294004" value="1"/>
  <variable name="X(7,3,199)" index="296648" value="1"/>
  <variable name="X(7,8,102)" index="299001" value="1"/>
  <variable name="X(7,57,6)" index="301355" value="1"/>
  <variable name="X(8,5,102)" index="303901" value="1"/>
  <variable name="X(8,7,199)" index="306448" value="1"/>
  <variable name="X(8,58,7)" index="308706" value="1"/>
  <variable name="X(9,2,197)" index="311346" value="1"/>
  <variable name="X(9,5,4)" index="313603" value="1"/>
  <variable name="X(9,6,5)" index="316054" value="1"/>
  <variable name="X(9,31,10)" index="318509" value="1"/>
  <variable name="X(9,32,31)" index="320980" value="1"/>
  <variable name="X(9,33,32)" index="323431" value="1"/>
  <variable name="X(9,36,34)" index="325883" value="1"/>
  <variable name="X(9,37,36)" index="328335" value="1"/>
  <variable name="X(9,39,20)" index="330769" value="1"/>
  <variable name="X(9,48,14)" index="333213" value="1"/>
  <variable name="X(9,59,8)" index="335657" value="1"/>
  <variable name="X(10,5,442)" index="338541" value="1"/>
  <variable name="X(10,33,461)" index="341010" value="1"/>
  <variable name="X(10,60,9)" index="343008" value="1"/>
  <variable name="X(11,12,491)" index="345940" value="1"/>
  <variable name="X(11,61,10)" index="347909" value="1"/>
  <variable name="X(12,11,10)" index="350359" value="1"/>
  <variable name="X(12,20,491)" index="353290" value="1"/>
  <variable name="X(12,24,513)" index="355762" value="1"/>
  <variable name="X(12,62,11)" index="357710" value="1"/>
  <variable name="X(13,31,589)" index="360738" value="1"/>
  <variable name="X(13,63,12)" index="362611" value="1"/>
  <variable name="X(14,15,504)" index="365553" value="1"/>
  <variable name="X(14,31,638)" index="368137" value="1"/>
  <variable name="X(14,64,13)" index="369962" value="1"/>
  <variable name="X(15,14,687)" index="373086" value="1"/>
  <variable name="X(15,16,15)" index="374864" value="1"/>
  <variable name="X(15,43,532)" index="377831" value="1"/>
  <variable name="X(15,46,677)" index="380426" value="1"/>
  <variable name="X(15,65,14)" index="382213" value="1"/>
  <variable name="X(16,15,736)" index="385385" value="1"/>
  <variable name="X(16,17,16)" index="387115" value="1"/>
  <variable name="X(16,66,15)" index="389564" value="1"/>
  <variable name="X(17,16,505)" index="392504" value="1"/>
  <variable name="X(17,18,654)" index="395103" value="1"/>
  <variable name="X(17,67,16)" index="396915" value="1"/>
  <variable name="X(18,17,505)" index="399854" value="1"/>
  <variable name="X(18,19,753)" index="402552" value="1"/>
  <variable name="X(18,68,17)" index="404266" value="1"/>
  <variable name="X(19,18,17)" index="406716" value="1"/>
  <variable name="X(19,20,795)" index="409944" value="1"/>
  <variable name="X(19,69,18)" index="411617" value="1"/>
  <variable name="X(20,12,10)" index="414059" value="1"/>
  <variable name="X(20,19,17)" index="416516" value="1"/>
  <variable name="X(20,25,24)" index="418973" value="1"/>
  <variable name="X(20,31,491)" index="421890" value="1"/>
  <variable name="X(20,70,19)" index="423868" value="1"/>
  <variable name="X(21,22,21)" index="426320" value="1"/>
  <variable name="X(21,27,981)" index="429730" value="1"/>
  <variable name="X(21,71,20)" index="431219" value="1"/>
  <variable name="X(22,21,1030)" index="434679" value="1"/>
  <variable name="X(22,29,1008)" index="437107" value="1"/>
  <variable name="X(22,72,21)" index="438570" value="1"/>
  <variable name="X(23,31,1079)" index="442078" value="1"/>
  <variable name="X(23,38,527)" index="443976" value="1"/>
  <variable name="X(23,73,22)" index="445921" value="1"/>
  <variable name="X(24,12,1138)" index="449487" value="1"/>
  <variable name="X(24,31,1128)" index="451927" value="1"/>
  <variable name="X(24,74,23)" index="453272" value="1"/>
  <variable name="X(25,20,981)" index="456680" value="1"/>
  <variable name="X(25,28,510)" index="458659" value="1"/>
  <variable name="X(25,75,24)" index="460623" value="1"/>
  <variable name="X(26,28,20)" index="463069" value="1"/>
  <variable name="X(26,38,990)" index="466489" value="1"/>
  <variable name="X(26,76,25)" index="467974" value="1"/>
  <variable name="X(27,21,20)" index="470419" value="1"/>
  <variable name="X(27,28,981)" index="473830" value="1"/>
  <variable name="X(27,30,28)" index="475327" value="1"/>
  <variable name="X(27,77,26)" index="477775" value="1"/>
  <variable name="X(28,25,981)" index="481180" value="1"/>
  <variable name="X(28,26,515)" index="483164" value="1"/>
  <variable name="X(28,27,20)" index="485119" value="1"/>
  <variable name="X(28,78,27)" index="487576" value="1"/>
  <variable name="X(29,22,1393)" index="491392" value="1"/>
  <variable name="X(29,30,1058)" index="493507" value="1"/>
  <variable name="X(29,79,28)" index="494927" value="1"/>
  <variable name="X(30,27,1373)" index="498722" value="1"/>
  <variable name="X(30,29,28)" index="499827" value="1"/>
  <variable name="X(30,80,29)" index="502278" value="1"/>
  <variable name="X(31,9,491)" index="505190" value="1"/>
  <variable name="X(31,13,12)" index="507161" value="1"/>
  <variable name="X(31,14,13)" index="509612" value="1"/>
  <variable name="X(31,20,10)" index="512059" value="1"/>
  <variable name="X(31,23,22)" index="514521" value="1"/>
  <variable name="X(31,24,23)" index="516972" value="1"/>
  <variable name="X(31,32,521)" index="519920" value="1"/>
  <variable name="X(31,37,526)" index="522375" value="1"/>
  <variable name="X(31,39,528)" index="524827" value="1"/>
  <variable name="X(31,81,30)" index="526779" value="1"/>
  <variable name="X(32,9,1520)" index="530719" value="1"/>
  <variable name="X(32,31,1530)" index="533179" value="1"/>
  <variable name="X(32,82,31)" index="534130" value="1"/>
  <variable name="X(33,9,1569)" index="538118" value="1"/>
  <variable name="X(33,10,990)" index="539989" value="1"/>
  <variable name="X(33,34,33)" index="541482" value="1"/>
  <variable name="X(33,39,461)" index="544360" value="1"/>
  <variable name="X(33,40,39)" index="546388" value="1"/>
  <variable name="X(33,83,32)" index="548831" value="1"/>
  <variable name="X(34,33,1618)" index="552867" value="1"/>
  <variable name="X(34,35,475)" index="554174" value="1"/>
  <variable name="X(34,84,33)" index="556182" value="1"/>
  <variable name="X(35,34,1676)" index="560275" value="1"/>
  <variable name="X(35,36,1652)" index="562701" value="1"/>
  <variable name="X(35,85,34)" index="563533" value="1"/>
  <variable name="X(36,9,1667)" index="567616" value="1"/>
  <variable name="X(36,35,34)" index="568433" value="1"/>
  <variable name="X(36,86,35)" index="570884" value="1"/>
  <variable name="X(37,9,1765)" index="575064" value="1"/>
  <variable name="X(37,31,1775)" index="577524" value="1"/>
  <variable name="X(37,87,36)" index="578235" value="1"/>
  <variable name="X(38,23,1002)" index="581651" value="1"/>
  <variable name="X(38,26,20)" index="583119" value="1"/>
  <variable name="X(38,39,990)" index="586539" value="1"/>
  <variable name="X(38,88,37)" index="588036" value="1"/>
  <variable name="X(39,9,1226)" index="591675" value="1"/>
  <variable name="X(39,31,1873)" index="594772" value="1"/>
  <variable name="X(39,33,990)" index="596339" value="1"/>
  <variable name="X(39,38,20)" index="597819" value="1"/>
  <variable name="X(39,40,529)" index="600778" value="1"/>
  <variable name="X(39,89,38)" index="602737" value="1"/>
  <variable name="X(40,33,1912)" index="607061" value="1"/>
  <variable name="X(40,39,1922)" index="609521" value="1"/>
  <variable name="X(40,90,39)" index="610088" value="1"/>
  <variable name="X(41,42,727)" index="613226" value="1"/>
  <variable name="X(41,50,1961)" index="616910" value="1"/>
  <variable name="X(41,91,40)" index="617439" value="1"/>
  <variable name="X(42,3,1963)" index="621812" value="1"/>
  <variable name="X(42,41,138)" index="622437" value="1"/>
  <variable name="X(42,92,41)" index="624790" value="1"/>
  <variable name="X(43,15,2069)" index="629268" value="1"/>
  <variable name="X(43,45,44)" index="629693" value="1"/>
  <variable name="X(43,47,683)" index="632782" value="1"/>
  <variable name="X(43,93,42)" index="634591" value="1"/>
  <variable name="X(44,45,2121)" index="639120" value="1"/>
  <variable name="X(44,47,2108)" index="641557" value="1"/>
  <variable name="X(44,94,43)" index="641942" value="1"/>
  <variable name="X(45,43,2121)" index="646470" value="1"/>
  <variable name="X(45,44,680)" index="647479" value="1"/>
  <variable name="X(45,95,44)" index="649293" value="1"/>
  <variable name="X(46,15,14)" index="651713" value="1"/>
  <variable name="X(46,48,677)" index="654826" value="1"/>
  <variable name="X(46,96,45)" index="656644" value="1"/>
  <variable name="X(47,43,42)" index="659091" value="1"/>
  <variable name="X(47,44,43)" index="661542" value="1"/>
  <variable name="X(47,48,2059)" index="666008" value="1"/>
  <variable name="X(47,97,46)" index="666445" value="1"/>
  <variable name="X(48,6,692)" index="669541" value="1"/>
  <variable name="X(48,9,2059)" index="673358" value="1"/>
  <variable name="X(48,46,14)" index="673763" value="1"/>
  <variable name="X(48,47,42)" index="676241" value="1"/>
  <variable name="X(48,49,48)" index="678697" value="1"/>
  <variable name="X(48,98,47)" index="681146" value="1"/>
  <variable name="X(49,48,1966)" index="685515" value="1"/>
  <variable name="X(49,50,285)" index="686284" value="1"/>
  <variable name="X(49,99,48)" index="688497" value="1"/>
  <variable name="X(50,4,1961)" index="692860" value="1"/>
  <variable name="X(50,41,40)" index="693389" value="1"/>
  <variable name="X(50,49,146)" index="695945" value="1"/>
  <variable name="X(50,100,49)" index="698298" value="1"/>
 </variables>
</CPLEXSolution>
